Route 1: 0 100 96 18 46 41 30 1 4 0
Route 2: 0 5 13 26 78 7 28 69 12 32 0
Route 3: 0 81 72 87 86 70 29 92 93 27 74 83 0
Route 4: 0 21 36 66 79 64 97 71 53 52 47 89 0
Route 5: 0 59 84 31 61 82 63 0
Route 6: 0 77 10 22 60 44 51 58 39 6 45 56 0
Route 7: 0 57 14 62 48 9 35 50 55 0
Route 8: 0 40 16 33 98 99 67 68 15 20 0
Route 9: 0 94 17 25 85 34 95 3 76 75 19 0
Route 10: 0 91 65 42 2 37 88 24 23 0
Route 11: 0 73 8 11 80 38 49 90 54 43 0
